12420.0
1 1 1 1 1 1 1 1 1 1 1 1 1 1 1 1 1 1 1 1 1 1 1 1 1 1 1 1 1 0 
0 52 
1 2 4 
3 5 6 7 
8 10 
12 
9 11 
13 14 15 
16 17 18 19 20 21 
24 
22 
23 26 
25 
27 28 
30 31 32 
29 33 
34 35 
36 37 39 41 
38 40 
44 46 49 51 
43 45 
42 47 
48 50 
53 56 
54 55 
57 58 
60 62 
59 61 63 
64 65 67 
66 68 69 

